param n := 50;
param c := 150;
param w := 
1 148
2 147
3 147
4 146
5 139
6 139
7 138
8 133
9 130
10 119
11 117
12 113
13 111
14 109
15 108
16 104
17 101
18 99
19 94
20 90
21 89
22 87
23 86
24 84
25 83
26 78
27 77
28 76
29 75
30 69
31 63
32 62
33 57
34 53
35 51
36 50
37 49
38 35
39 34
40 31
41 30
42 24
43 20
44 16
45 14
46 14
47 9
48 6
49 5
50 4
;